language ESSENCE' 1.0

letting network_ExplicitWithRepetitionR4_Flag be 4
letting network_ExplicitWithRepetitionR4_Values_ExplicitVarSizeWithFlags_Flags be
        [[false, false, false, false; int(1..4)], [true, true, false, false; int(1..4)],
         [true, true, true, false; int(1..4)], [true, true, true, true; int(1..4)];
             int(1..4)]
$ Visualisation for network_ExplicitWithRepetitionR4_Values_ExplicitVarSizeWithFlags_Flags
$ _ _ _ _
$ T T _ _
$ T T T _
$ T T T T

letting network_ExplicitWithRepetitionR4_Values_ExplicitVarSizeWithFlags_Values be
        [[1, 1, 1, 1; int(1..4)], [2, 3, 1, 1; int(1..4)], [1, 5, 6, 1; int(1..4)], [1, 2, 4, 7; int(1..4)]; int(1..4)]
$ Visualisation for network_ExplicitWithRepetitionR4_Values_ExplicitVarSizeWithFlags_Values
$ 1 1 1 1
$ 2 3 1 1
$ 1 5 6 1
$ 1 2 4 7

